(set-info :source |printed by MathSAT|)
(declare-fun |!{$(in_main#0)<N>}| () Int)
(declare-fun |!{$(in_main#0)<N>}.next| () Int)
(declare-fun |!{$(in_main#0)<i>}| () Int)
(declare-fun |!{$(in_main#0)<i>}.next| () Int)
(declare-fun |!{$(in_main#0)<j>}| () Int)
(declare-fun |!{$(in_main#0)<j>}.next| () Int)
(declare-fun |!{$(in_main#0)<x>}| () Int)
(declare-fun |!{$(in_main#0)<x>}.next| () Int)
(declare-fun |!{$(in_main#0)<A.1>}| () (Array Int Int))
(declare-fun |!{$(in_main#0)<A.1>}.next| () (Array Int Int))
(declare-fun |!{$(in_main#0)<B.2>}| () (Array Int Int))
(declare-fun |!{$(in_main#0)<B.2>}.next| () (Array Int Int))
(declare-fun |!{$(in_main#0)<C.3>}| () (Array Int Int))
(declare-fun |!{$(in_main#0)<C.3>}.next| () (Array Int Int))
(declare-fun |!{$(in_main#0)<$(in___VERIFIER_nondet_int#0)<h#<__VERIFIER_nondet_int.return>>>}| () Int)
(declare-fun |!{$(in_main#0)<$(in___VERIFIER_nondet_int#1)<h#<__VERIFIER_nondet_int.return>>>}| () Int)
(declare-fun |!{$(in_main#0)<$(in___VERIFIER_nondet_int#2)<h#<__VERIFIER_nondet_int.return>>>}| () Int)
(declare-fun !pc () Int)
(declare-fun !pc.next () Int)
(declare-fun |%{$(in_main#0)<x>}#1| () Int)
(declare-fun |%{$(in_main#0)<A.1>}#1| () (Array Int Int))
(declare-fun |%{$(in_main#0)<B.2>}#1| () (Array Int Int))
(declare-fun |%{$(in_main#0)<C.3>}#1| () (Array Int Int))
(declare-fun |%{$(in_main#0)<j>}#2| () Int)
(declare-fun |%{$(in_main#0)<C.3>}#2| () (Array Int Int))
(define-fun .def_42 () Int (! !pc :next !pc.next))
(define-fun .def_45 () Bool (! (= .def_42 2) :init true))
(define-fun .def_248 () Bool (= .def_42 32))
(define-fun .def_224 () Bool (= !pc.next 61))
(define-fun .def_251 () Bool (and .def_224 .def_248))
(define-fun .def_8 () Int (! |!{$(in_main#0)<N>}| :next |!{$(in_main#0)<N>}.next|))
(define-fun .def_86 () Bool (= .def_8 |!{$(in_main#0)<N>}.next|))
(define-fun .def_60 () Bool (= |!{$(in_main#0)<i>}.next| 0))
(define-fun .def_241 () Bool (and .def_60 .def_86))
(define-fun .def_12 () Int (! |!{$(in_main#0)<j>}| :next |!{$(in_main#0)<j>}.next|))
(define-fun .def_90 () Bool (= .def_12 |!{$(in_main#0)<j>}.next|))
(define-fun .def_242 () Bool (and .def_90 .def_241))
(define-fun .def_14 () Int (! |!{$(in_main#0)<x>}| :next |!{$(in_main#0)<x>}.next|))
(define-fun .def_92 () Bool (= .def_14 |!{$(in_main#0)<x>}.next|))
(define-fun .def_243 () Bool (and .def_92 .def_242))
(define-fun .def_16 () (Array Int Int) (! |!{$(in_main#0)<A.1>}| :next |!{$(in_main#0)<A.1>}.next|))
(define-fun .def_94 () Bool (= .def_16 |!{$(in_main#0)<A.1>}.next|))
(define-fun .def_244 () Bool (and .def_94 .def_243))
(define-fun .def_18 () (Array Int Int) (! |!{$(in_main#0)<B.2>}| :next |!{$(in_main#0)<B.2>}.next|))
(define-fun .def_96 () Bool (= .def_18 |!{$(in_main#0)<B.2>}.next|))
(define-fun .def_245 () Bool (and .def_96 .def_244))
(define-fun .def_20 () (Array Int Int) (! |!{$(in_main#0)<C.3>}| :next |!{$(in_main#0)<C.3>}.next|))
(define-fun .def_98 () Bool (= .def_20 |!{$(in_main#0)<C.3>}.next|))
(define-fun .def_246 () Bool (and .def_98 .def_245))
(define-fun .def_10 () Int (! |!{$(in_main#0)<i>}| :next |!{$(in_main#0)<i>}.next|))
(define-fun .def_182 () Bool (<= .def_8 .def_10))
(define-fun .def_247 () Bool (and .def_182 .def_246))
(define-fun .def_252 () Bool (and .def_247 .def_251))
(define-fun .def_73 () Bool (= !pc.next 32))
(define-fun .def_249 () Bool (and .def_73 .def_248))
(define-fun .def_232 () (Array Int Int) (store .def_18 .def_10 |!{$(in_main#0)<$(in___VERIFIER_nondet_int#2)<h#<__VERIFIER_nondet_int.return>>>}|))
(define-fun .def_237 () Bool (= |!{$(in_main#0)<B.2>}.next| .def_232))
(define-fun .def_231 () (Array Int Int) (store .def_16 .def_10 |!{$(in_main#0)<$(in___VERIFIER_nondet_int#1)<h#<__VERIFIER_nondet_int.return>>>}|))
(define-fun .def_235 () Bool (= |!{$(in_main#0)<A.1>}.next| .def_231))
(define-fun .def_208 () Int (* (- 1) |!{$(in_main#0)<i>}.next|))
(define-fun .def_209 () Int (+ .def_10 .def_208))
(define-fun .def_210 () Bool (= .def_209 (- 1)))
(define-fun .def_211 () Bool (and .def_86 .def_210))
(define-fun .def_233 () Bool (and .def_90 .def_211))
(define-fun .def_234 () Bool (and .def_92 .def_233))
(define-fun .def_236 () Bool (and .def_234 .def_235))
(define-fun .def_238 () Bool (and .def_236 .def_237))
(define-fun .def_239 () Bool (and .def_98 .def_238))
(define-fun .def_183 () Bool (not .def_182))
(define-fun .def_240 () Bool (and .def_183 .def_239))
(define-fun .def_250 () Bool (and .def_240 .def_249))
(define-fun .def_253 () Bool (or .def_250 .def_252))
(define-fun .def_223 () Bool (= .def_42 61))
(define-fun .def_172 () Bool (= !pc.next 85))
(define-fun .def_227 () Bool (and .def_172 .def_223))
(define-fun .def_160 () Bool (= |!{$(in_main#0)<x>}.next| 0))
(define-fun .def_88 () Bool (= .def_10 |!{$(in_main#0)<i>}.next|))
(define-fun .def_101 () Bool (and .def_86 .def_88))
(define-fun .def_102 () Bool (and .def_90 .def_101))
(define-fun .def_161 () Bool (and .def_102 .def_160))
(define-fun .def_162 () Bool (and .def_94 .def_161))
(define-fun .def_163 () Bool (and .def_96 .def_162))
(define-fun .def_164 () Bool (and .def_98 .def_163))
(define-fun .def_221 () Bool (and .def_164 .def_182))
(define-fun .def_228 () Bool (and .def_221 .def_227))
(define-fun .def_225 () Bool (and .def_223 .def_224))
(define-fun .def_217 () Bool (= |!{$(in_main#0)<C.3>}.next| |%{$(in_main#0)<C.3>}#2|))
(define-fun .def_212 () Bool (= |!{$(in_main#0)<j>}.next| |%{$(in_main#0)<j>}#2|))
(define-fun .def_213 () Bool (and .def_211 .def_212))
(define-fun .def_214 () Bool (and .def_92 .def_213))
(define-fun .def_215 () Bool (and .def_94 .def_214))
(define-fun .def_216 () Bool (and .def_96 .def_215))
(define-fun .def_218 () Bool (and .def_216 .def_217))
(define-fun .def_187 () (Array Int Int) (store .def_20 .def_12 .def_10))
(define-fun .def_202 () Bool (= .def_187 |%{$(in_main#0)<C.3>}#2|))
(define-fun .def_194 () Int (* (- 1) |%{$(in_main#0)<j>}#2|))
(define-fun .def_195 () Int (+ .def_12 .def_194))
(define-fun .def_196 () Bool (= .def_195 (- 1)))
(define-fun .def_185 () Int (select .def_18 .def_10))
(define-fun .def_184 () Int (select .def_16 .def_10))
(define-fun .def_186 () Bool (= .def_184 .def_185))
(define-fun .def_198 () Bool (and .def_186 .def_196))
(define-fun .def_204 () Bool (and .def_198 .def_202))
(define-fun .def_201 () Bool (= .def_20 |%{$(in_main#0)<C.3>}#2|))
(define-fun .def_193 () Bool (= .def_12 |%{$(in_main#0)<j>}#2|))
(define-fun .def_189 () Bool (not .def_186))
(define-fun .def_197 () Bool (and .def_189 .def_193))
(define-fun .def_203 () Bool (and .def_197 .def_201))
(define-fun .def_205 () Bool (or .def_203 .def_204))
(define-fun .def_219 () Bool (and .def_205 .def_218))
(define-fun .def_220 () Bool (and .def_183 .def_219))
(define-fun .def_226 () Bool (and .def_220 .def_225))
(define-fun .def_229 () Bool (or .def_226 .def_228))
(define-fun .def_167 () Bool (= .def_42 85))
(define-fun .def_126 () Bool (= !pc.next 117))
(define-fun .def_176 () Bool (and .def_126 .def_167))
(define-fun .def_76 () Bool (<= .def_12 .def_14))
(define-fun .def_165 () Bool (and .def_76 .def_164))
(define-fun .def_177 () Bool (and .def_165 .def_176))
(define-fun .def_173 () Bool (and .def_167 .def_172))
(define-fun .def_78 () Int (select .def_20 .def_14))
(define-fun .def_140 () Int (* (- 1) .def_78))
(define-fun .def_141 () Int (+ .def_14 .def_140))
(define-fun .def_138 () Int (* (- 1) .def_12))
(define-fun .def_142 () Int (+ .def_138 .def_141))
(define-fun .def_143 () Int (+ .def_10 .def_142))
(define-fun .def_144 () Bool (<= 0 .def_143))
(define-fun .def_145 () Int (ite .def_144 1 0))
(define-fun .def_146 () Bool (= .def_145 0))
(define-fun .def_147 () Bool (not .def_146))
(define-fun .def_104 () Int (* (- 1) |!{$(in_main#0)<x>}.next|))
(define-fun .def_105 () Int (+ .def_14 .def_104))
(define-fun .def_106 () Bool (= .def_105 (- 1)))
(define-fun .def_107 () Bool (and .def_102 .def_106))
(define-fun .def_108 () Bool (and .def_94 .def_107))
(define-fun .def_109 () Bool (and .def_96 .def_108))
(define-fun .def_110 () Bool (and .def_98 .def_109))
(define-fun .def_158 () Bool (and .def_110 .def_147))
(define-fun .def_77 () Bool (not .def_76))
(define-fun .def_159 () Bool (and .def_77 .def_158))
(define-fun .def_174 () Bool (and .def_159 .def_173))
(define-fun .def_169 () Bool (= !pc.next 105))
(define-fun .def_170 () Bool (and .def_167 .def_169))
(define-fun .def_150 () Bool (and .def_86 .def_146))
(define-fun .def_151 () Bool (and .def_88 .def_150))
(define-fun .def_152 () Bool (and .def_90 .def_151))
(define-fun .def_153 () Bool (and .def_92 .def_152))
(define-fun .def_154 () Bool (and .def_94 .def_153))
(define-fun .def_155 () Bool (and .def_96 .def_154))
(define-fun .def_156 () Bool (and .def_98 .def_155))
(define-fun .def_157 () Bool (and .def_77 .def_156))
(define-fun .def_171 () Bool (and .def_157 .def_170))
(define-fun .def_175 () Bool (or .def_171 .def_174))
(define-fun .def_178 () Bool (or .def_175 .def_177))
(define-fun .def_130 () Bool (= !pc.next 0))
(define-fun .def_121 () Bool (= .def_42 117))
(define-fun .def_131 () Bool (and .def_121 .def_130))
(define-fun .def_113 () Bool (and .def_76 .def_86))
(define-fun .def_114 () Bool (and .def_88 .def_113))
(define-fun .def_115 () Bool (and .def_90 .def_114))
(define-fun .def_116 () Bool (and .def_92 .def_115))
(define-fun .def_117 () Bool (and .def_94 .def_116))
(define-fun .def_118 () Bool (and .def_96 .def_117))
(define-fun .def_119 () Bool (and .def_98 .def_118))
(define-fun .def_132 () Bool (and .def_119 .def_131))
(define-fun .def_127 () Bool (and .def_121 .def_126))
(define-fun .def_79 () Bool (<= .def_14 .def_78))
(define-fun .def_80 () Int (ite .def_79 1 0))
(define-fun .def_81 () Bool (= .def_80 0))
(define-fun .def_82 () Bool (not .def_81))
(define-fun .def_111 () Bool (and .def_82 .def_110))
(define-fun .def_112 () Bool (and .def_77 .def_111))
(define-fun .def_128 () Bool (and .def_112 .def_127))
(define-fun .def_123 () Bool (= !pc.next 137))
(define-fun .def_124 () Bool (and .def_121 .def_123))
(define-fun .def_87 () Bool (and .def_81 .def_86))
(define-fun .def_89 () Bool (and .def_87 .def_88))
(define-fun .def_91 () Bool (and .def_89 .def_90))
(define-fun .def_93 () Bool (and .def_91 .def_92))
(define-fun .def_95 () Bool (and .def_93 .def_94))
(define-fun .def_97 () Bool (and .def_95 .def_96))
(define-fun .def_99 () Bool (and .def_97 .def_98))
(define-fun .def_100 () Bool (and .def_77 .def_99))
(define-fun .def_125 () Bool (and .def_100 .def_124))
(define-fun .def_129 () Bool (or .def_125 .def_128))
(define-fun .def_133 () Bool (or .def_129 .def_132))
(define-fun .def_74 () Bool (and .def_45 .def_73))
(define-fun .def_70 () Bool (= |!{$(in_main#0)<C.3>}.next| |%{$(in_main#0)<C.3>}#1|))
(define-fun .def_68 () Bool (= |!{$(in_main#0)<B.2>}.next| |%{$(in_main#0)<B.2>}#1|))
(define-fun .def_66 () Bool (= |!{$(in_main#0)<A.1>}.next| |%{$(in_main#0)<A.1>}#1|))
(define-fun .def_64 () Bool (= |!{$(in_main#0)<x>}.next| |%{$(in_main#0)<x>}#1|))
(define-fun .def_62 () Bool (= |!{$(in_main#0)<j>}.next| 0))
(define-fun .def_59 () Bool (= |!{$(in_main#0)<N>}.next| |!{$(in_main#0)<$(in___VERIFIER_nondet_int#0)<h#<__VERIFIER_nondet_int.return>>>}|))
(define-fun .def_61 () Bool (and .def_59 .def_60))
(define-fun .def_63 () Bool (and .def_61 .def_62))
(define-fun .def_65 () Bool (and .def_63 .def_64))
(define-fun .def_67 () Bool (and .def_65 .def_66))
(define-fun .def_69 () Bool (and .def_67 .def_68))
(define-fun .def_71 () Bool (and .def_69 .def_70))
(define-fun .def_75 () Bool (and .def_71 .def_74))
(define-fun .def_134 () Bool (or .def_75 .def_133))
(define-fun .def_179 () Bool (or .def_134 .def_178))
(define-fun .def_230 () Bool (or .def_179 .def_229))
(define-fun .def_254 () Bool (! (or .def_230 .def_253) :trans true))
(define-fun .def_180 () Bool (= .def_42 105))
(define-fun .def_135 () Bool (= .def_42 137))
(define-fun .def_255 () Bool (or .def_135 .def_180))
(define-fun .def_256 () Bool (! (not .def_255) :invar-property 0 :invar-property-name ||))
(assert true)
